100 8
810 605
253 391
272 137
759 306
751 449
777 649
376 231
295 303
594 274
714 628
417 237
417 647
374 175
947 125
822 683
362 653
760 697
291 373
244 598
737 661
601 479
286 578
745 589
310 639
863 101
308 460
401 105
240 190
407 659
990 242
828 377
283 702
798 754
613 392
816 541
265 329
304 334
412 709
567 410
773 241
281 650
407 256
356 269
394 305
716 406
405 95
666 424
305 559
756 700
676 594
230 224
363 502
533 679
261 318
372 510
253 373
821 311
345 282
591 300
553 667
219 522
846 230
469 784
559 693
257 353
295 543
321 664
680 440
394 107
802 558
727 531
715 500
258 590
889 393
269 199
192 597
302 669
810 665
375 79
209 284
291 652
903 382
851 403
763 556
758 814
706 561
676 266
647 619
343 642
897 162
880 349
237 530
372 209
711 547
268 695
434 659
342 274
225 315
240 617
225 262
